* #variable= 549 #constraint= 283 
+1 x527 = 0 ;
+1 x62 -1 x162 = 0 ;
+1 x162 -1 x235 = 0 ;
+1 x235 -1 x290 = 0 ;
+1 x290 -1 x334 = 0 ;
+1 x334 -1 x371 = 0 ;
+1 x407 +2 x417 +4 x427 +8 x437 +16 x447 +32 x457 +64 x467 +128 x477 +256 x487 +512 x497 +2 x408 +4 x418 +8 x428 +16 x438 +32 x448 +64 x458 +128 x468 +256 x478 +512 x488 +1024 x498 +4 x409 +8 x419 +16 x429 +32 x439 +64 x449 +128 x459 +256 x469 +512 x479 +1024 x489 +2048 x499 +8 x410 +16 x420 +32 x430 +64 x440 +128 x450 +256 x460 +512 x470 +1024 x480 +2048 x490 +4096 x500 +16 x411 +32 x421 +64 x431 +128 x441 +256 x451 +512 x461 +1024 x471 +2048 x481 +4096 x491 +8192 x501 +32 x412 +64 x422 +128 x432 +256 x442 +512 x452 +1024 x462 +2048 x472 +4096 x482 +8192 x492 +16384 x502 +64 x413 +128 x423 +256 x433 +512 x443 +1024 x453 +2048 x463 +4096 x473 +8192 x483 +16384 x493 +32768 x503 +128 x414 +256 x424 +512 x434 +1024 x444 +2048 x454 +4096 x464 +8192 x474 +16384 x484 +32768 x494 +65536 x504 +256 x415 +512 x425 +1024 x435 +2048 x445 +4096 x455 +8192 x465 +16384 x475 +32768 x485 +65536 x495 +131072 x505 +512 x416 +1024 x426 +2048 x436 +4096 x446 +8192 x456 +16384 x466 +32768 x476 +65536 x486 +131072 x496 +262144 x506 -1 x22 -2 x23 -4 x24 -8 x25 -16 x26 -32 x27 -64 x28 -128 x29 -256 x30 -512 x31 -1024 x32 -2048 x33 -4096 x34 -8192 x35 -16384 x36 -32768 x37 -65536 x38 -131072 x39 -262144 x40 -524288 x41 = 0; 
+1 x1 -1 x22 +2 x2 -2 x23 +4 x3 -4 x24 +8 x4 -8 x25 +16 x5 -16 x26 +32 x6 -32 x27 +64 x7 -64 x28 +128 x8 -128 x29 +256 x9 -256 x30 +512 x10 -512 x31 +1024 x11 -1024 x32 +2048 x12 -2048 x33 +4096 x13 -4096 x34 +8192 x14 -8192 x35 +16384 x15 -16384 x36 +32768 x16 -32768 x37 +65536 x17 -65536 x38 +131072 x18 -131072 x39 +262144 x19 -262144 x40 +524288 x20 -524288 x41 >= 1 ;
+1 x528 = 0 ;
+2 x163 +1 x164 -1 x64 -1 x63 = 0 ;
+1 x164 -1 x236 = 0 ;
+1 x236 -1 x291 = 0 ;
+1 x291 -1 x335 = 0 ;
+1 x335 -1 x372 = 0 ;
+1 x529 = 0 ;
+2 x165 +1 x166 -1 x67 -1 x65 -1 x66 = 0 ;
+2 x237 +1 x238 -1 x163 -1 x166 = 0 ;
+1 x238 -1 x292 = 0 ;
+1 x292 -1 x336 = 0 ;
+1 x336 -1 x373 = 0 ;
+1 x530 = 0 ;
+2 x167 +1 x168 -1 x70 -1 x68 -1 x69 = 0 ;
+1 x71 -1 x198 = 0 ;
+2 x239 +1 x240 -1 x198 -1 x168 -1 x165 = 0 ;
+2 x293 +1 x294 -1 x237 -1 x240 = 0 ;
+1 x294 -1 x337 = 0 ;
+1 x337 -1 x374 = 0 ;
+1 x531 = 0 ;
+2 x169 +1 x170 -1 x74 -1 x72 -1 x73 = 0 ;
+2 x199 +1 x200 -1 x76 -1 x75 = 0 ;
+2 x241 +1 x242 -1 x200 -1 x170 -1 x167 = 0 ;
+2 x295 +1 x296 -1 x239 -1 x242 = 0 ;
+2 x338 +1 x339 -1 x293 -1 x296 = 0 ;
+1 x339 -1 x375 = 0 ;
+1 x532 = 0 ;
+2 x171 +1 x172 -1 x79 -1 x77 -1 x78 = 0 ;
+2 x201 +1 x202 -1 x82 -1 x80 -1 x81 = 0 ;
+2 x243 +1 x244 -1 x202 -1 x172 -1 x169 = 0 ;
+1 x199 -1 x271 = 0 ;
+2 x297 +1 x298 -1 x271 -1 x244 -1 x241 = 0 ;
+2 x340 +1 x341 -1 x295 -1 x298 = 0 ;
+2 x376 +1 x377 -1 x338 -1 x341 = 0 ;
+1 x533 = 0 ;
+2 x173 +1 x174 -1 x85 -1 x83 -1 x84 = 0 ;
+2 x203 +1 x204 -1 x88 -1 x86 -1 x87 = 0 ;
+1 x89 -1 x222 = 0 ;
+2 x245 +1 x246 -1 x204 -1 x174 -1 x171 = 0 ;
+2 x272 +1 x273 -1 x222 -1 x201 = 0 ;
+2 x299 +1 x300 -1 x273 -1 x246 -1 x243 = 0 ;
+2 x342 +1 x343 -1 x297 -1 x300 = 0 ;
+2 x378 +1 x379 -1 x340 -1 x343 = 0 ;
+1 x534 = 0 ;
+2 x175 +1 x176 -1 x92 -1 x90 -1 x91 = 0 ;
+2 x205 +1 x206 -1 x95 -1 x93 -1 x94 = 0 ;
+2 x223 +1 x224 -1 x97 -1 x96 = 0 ;
+2 x247 +1 x248 -1 x206 -1 x176 -1 x173 = 0 ;
+2 x274 +1 x275 -1 x224 -1 x203 = 0 ;
+2 x301 +1 x302 -1 x275 -1 x248 -1 x245 = 0 ;
+1 x272 -1 x326 = 0 ;
+2 x344 +1 x345 -1 x326 -1 x302 -1 x299 = 0 ;
+2 x380 +1 x381 -1 x342 -1 x345 = 0 ;
+1 x535 = 0 ;
+2 x177 +1 x178 -1 x100 -1 x98 -1 x99 = 0 ;
+2 x207 +1 x208 -1 x103 -1 x101 -1 x102 = 0 ;
+2 x225 +1 x226 -1 x106 -1 x104 -1 x105 = 0 ;
+2 x249 +1 x250 -1 x208 -1 x178 -1 x175 = 0 ;
+2 x276 +1 x277 -1 x223 -1 x205 -1 x226 = 0 ;
+2 x303 +1 x304 -1 x277 -1 x250 -1 x247 = 0 ;
+1 x274 -1 x327 = 0 ;
+2 x346 +1 x347 -1 x327 -1 x304 -1 x301 = 0 ;
+2 x382 +1 x383 -1 x344 -1 x347 = 0 ;
+1 x536 = 0 ;
+2 x179 +1 x180 -1 x109 -1 x107 -1 x108 = 0 ;
+2 x209 +1 x210 -1 x112 -1 x110 -1 x111 = 0 ;
+2 x227 +1 x228 -1 x115 -1 x113 -1 x114 = 0 ;
+1 x116 -1 x234 = 0 ;
+2 x251 +1 x252 -1 x210 -1 x180 -1 x177 = 0 ;
+2 x278 +1 x279 -1 x225 -1 x207 -1 x228 = 0 ;
+1 x234 -1 x289 = 0 ;
+2 x305 +1 x306 -1 x279 -1 x252 -1 x249 = 0 ;
+2 x328 +1 x329 -1 x289 -1 x276 = 0 ;
+2 x348 +1 x349 -1 x329 -1 x306 -1 x303 = 0 ;
+2 x384 +1 x385 -1 x346 -1 x349 = 0 ;
+1 x537 = 0 ;
+2 x181 +1 x182 -1 x119 -1 x117 -1 x118 = 0 ;
+2 x211 +1 x212 -1 x122 -1 x120 -1 x121 = 0 ;
+2 x229 +1 x230 -1 x125 -1 x123 -1 x124 = 0 ;
+2 x253 +1 x254 -1 x212 -1 x182 -1 x179 = 0 ;
+2 x280 +1 x281 -1 x227 -1 x209 -1 x230 = 0 ;
+2 x307 +1 x308 -1 x281 -1 x254 -1 x251 = 0 ;
+1 x278 -1 x330 = 0 ;
+2 x350 +1 x351 -1 x330 -1 x308 -1 x305 = 0 ;
+1 x328 -1 x370 = 0 ;
+2 x386 +1 x387 -1 x370 -1 x351 -1 x348 = 0 ;
+1 x538 = 0 ;
+2 x183 +1 x184 -1 x128 -1 x126 -1 x127 = 0 ;
+2 x213 +1 x214 -1 x131 -1 x129 -1 x130 = 0 ;
+2 x231 +1 x232 -1 x133 -1 x132 = 0 ;
+2 x255 +1 x256 -1 x214 -1 x184 -1 x181 = 0 ;
+2 x282 +1 x283 -1 x229 -1 x211 -1 x232 = 0 ;
+2 x309 +1 x310 -1 x283 -1 x256 -1 x253 = 0 ;
+1 x280 -1 x331 = 0 ;
+2 x352 +1 x353 -1 x331 -1 x310 -1 x307 = 0 ;
+2 x388 +1 x389 -1 x350 -1 x353 = 0 ;
+1 x539 = 0 ;
+2 x185 +1 x186 -1 x136 -1 x134 -1 x135 = 0 ;
+2 x215 +1 x216 -1 x139 -1 x137 -1 x138 = 0 ;
+1 x140 -1 x233 = 0 ;
+2 x257 +1 x258 -1 x216 -1 x186 -1 x183 = 0 ;
+2 x284 +1 x285 -1 x231 -1 x213 -1 x233 = 0 ;
+2 x311 +1 x312 -1 x285 -1 x258 -1 x255 = 0 ;
+1 x282 -1 x332 = 0 ;
+2 x354 +1 x355 -1 x332 -1 x312 -1 x309 = 0 ;
+2 x390 +1 x391 -1 x352 -1 x355 = 0 ;
+1 x540 = 0 ;
+2 x187 +1 x188 -1 x143 -1 x141 -1 x142 = 0 ;
+2 x217 +1 x218 -1 x146 -1 x144 -1 x145 = 0 ;
+2 x259 +1 x260 -1 x218 -1 x188 -1 x185 = 0 ;
+1 x215 -1 x286 = 0 ;
+2 x313 +1 x314 -1 x286 -1 x260 -1 x257 = 0 ;
+1 x284 -1 x333 = 0 ;
+2 x356 +1 x357 -1 x333 -1 x314 -1 x311 = 0 ;
+2 x392 +1 x393 -1 x354 -1 x357 = 0 ;
+1 x541 = 0 ;
+2 x189 +1 x190 -1 x149 -1 x147 -1 x148 = 0 ;
+2 x219 +1 x220 -1 x151 -1 x150 = 0 ;
+2 x261 +1 x262 -1 x220 -1 x190 -1 x187 = 0 ;
+1 x217 -1 x287 = 0 ;
+2 x315 +1 x316 -1 x287 -1 x262 -1 x259 = 0 ;
+2 x358 +1 x359 -1 x313 -1 x316 = 0 ;
+2 x394 +1 x395 -1 x356 -1 x359 = 0 ;
+1 x542 = 0 ;
+2 x191 +1 x192 -1 x154 -1 x152 -1 x153 = 0 ;
+1 x155 -1 x221 = 0 ;
+2 x263 +1 x264 -1 x221 -1 x192 -1 x189 = 0 ;
+1 x219 -1 x288 = 0 ;
+2 x317 +1 x318 -1 x288 -1 x264 -1 x261 = 0 ;
+2 x360 +1 x361 -1 x315 -1 x318 = 0 ;
+2 x396 +1 x397 -1 x358 -1 x361 = 0 ;
+1 x543 = 0 ;
+2 x193 +1 x194 -1 x158 -1 x156 -1 x157 = 0 ;
+2 x265 +1 x266 -1 x191 -1 x194 = 0 ;
+2 x319 +1 x320 -1 x263 -1 x266 = 0 ;
+2 x362 +1 x363 -1 x317 -1 x320 = 0 ;
+2 x398 +1 x399 -1 x360 -1 x363 = 0 ;
+1 x544 = 0 ;
+2 x195 +1 x196 -1 x160 -1 x159 = 0 ;
+2 x267 +1 x268 -1 x193 -1 x196 = 0 ;
+2 x321 +1 x322 -1 x265 -1 x268 = 0 ;
+2 x364 +1 x365 -1 x319 -1 x322 = 0 ;
+2 x400 +1 x401 -1 x362 -1 x365 = 0 ;
+1 x545 = 0 ;
+1 x161 -1 x197 = 0 ;
+2 x269 +1 x270 -1 x195 -1 x197 = 0 ;
+2 x323 +1 x324 -1 x267 -1 x270 = 0 ;
+2 x366 +1 x367 -1 x321 -1 x324 = 0 ;
+2 x402 +1 x403 -1 x364 -1 x367 = 0 ;
+1 x546 = 0 ;
+1 x269 -1 x325 = 0 ;
+2 x368 +1 x369 -1 x323 -1 x325 = 0 ;
+2 x404 +1 x405 -1 x366 -1 x369 = 0 ;
+1 x368 -1 x406 = 0 ;
+1 x407 -1 x62 = 0 ;
+1 x408 -1 x64 = 0 ;
+1 x409 -1 x67 = 0 ;
+1 x410 -1 x71 = 0 ;
+1 x411 -1 x76 = 0 ;
+1 x412 -1 x82 = 0 ;
+1 x413 -1 x89 = 0 ;
+1 x414 -1 x97 = 0 ;
+1 x415 -1 x106 = 0 ;
+1 x416 -1 x116 = 0 ;
+1 x417 -1 x63 = 0 ;
+1 x418 -1 x66 = 0 ;
+1 x419 -1 x70 = 0 ;
+1 x420 -1 x75 = 0 ;
+1 x421 -1 x81 = 0 ;
+1 x422 -1 x88 = 0 ;
+1 x423 -1 x96 = 0 ;
+1 x424 -1 x105 = 0 ;
+1 x425 -1 x115 = 0 ;
+1 x426 -1 x125 = 0 ;
+1 x427 -1 x65 = 0 ;
+1 x428 -1 x69 = 0 ;
+1 x429 -1 x74 = 0 ;
+1 x430 -1 x80 = 0 ;
+1 x431 -1 x87 = 0 ;
+1 x432 -1 x95 = 0 ;
+1 x433 -1 x104 = 0 ;
+1 x434 -1 x114 = 0 ;
+1 x435 -1 x124 = 0 ;
+1 x436 -1 x133 = 0 ;
+1 x437 -1 x68 = 0 ;
+1 x438 -1 x73 = 0 ;
+1 x439 -1 x79 = 0 ;
+1 x440 -1 x86 = 0 ;
+1 x441 -1 x94 = 0 ;
+1 x442 -1 x103 = 0 ;
+1 x443 -1 x113 = 0 ;
+1 x444 -1 x123 = 0 ;
+1 x445 -1 x132 = 0 ;
+1 x446 -1 x140 = 0 ;
+1 x447 -1 x72 = 0 ;
+1 x448 -1 x78 = 0 ;
+1 x449 -1 x85 = 0 ;
+1 x450 -1 x93 = 0 ;
+1 x451 -1 x102 = 0 ;
+1 x452 -1 x112 = 0 ;
+1 x453 -1 x122 = 0 ;
+1 x454 -1 x131 = 0 ;
+1 x455 -1 x139 = 0 ;
+1 x456 -1 x146 = 0 ;
+1 x457 -1 x77 = 0 ;
+1 x458 -1 x84 = 0 ;
+1 x459 -1 x92 = 0 ;
+1 x460 -1 x101 = 0 ;
+1 x461 -1 x111 = 0 ;
+1 x462 -1 x121 = 0 ;
+1 x463 -1 x130 = 0 ;
+1 x464 -1 x138 = 0 ;
+1 x465 -1 x145 = 0 ;
+1 x466 -1 x151 = 0 ;
+1 x467 -1 x83 = 0 ;
+1 x468 -1 x91 = 0 ;
+1 x469 -1 x100 = 0 ;
+1 x470 -1 x110 = 0 ;
+1 x471 -1 x120 = 0 ;
+1 x472 -1 x129 = 0 ;
+1 x473 -1 x137 = 0 ;
+1 x474 -1 x144 = 0 ;
+1 x475 -1 x150 = 0 ;
+1 x476 -1 x155 = 0 ;
+1 x477 -1 x90 = 0 ;
+1 x478 -1 x99 = 0 ;
+1 x479 -1 x109 = 0 ;
+1 x480 -1 x119 = 0 ;
+1 x481 -1 x128 = 0 ;
+1 x482 -1 x136 = 0 ;
+1 x483 -1 x143 = 0 ;
+1 x484 -1 x149 = 0 ;
+1 x485 -1 x154 = 0 ;
+1 x486 -1 x158 = 0 ;
+1 x487 -1 x98 = 0 ;
+1 x488 -1 x108 = 0 ;
+1 x489 -1 x118 = 0 ;
+1 x490 -1 x127 = 0 ;
+1 x491 -1 x135 = 0 ;
+1 x492 -1 x142 = 0 ;
+1 x493 -1 x148 = 0 ;
+1 x494 -1 x153 = 0 ;
+1 x495 -1 x157 = 0 ;
+1 x496 -1 x160 = 0 ;
+1 x497 -1 x107 = 0 ;
+1 x498 -1 x117 = 0 ;
+1 x499 -1 x126 = 0 ;
+1 x500 -1 x134 = 0 ;
+1 x501 -1 x141 = 0 ;
+1 x502 -1 x147 = 0 ;
+1 x503 -1 x152 = 0 ;
+1 x504 -1 x156 = 0 ;
+1 x505 -1 x159 = 0 ;
+1 x506 -1 x161 = 0 ;
+2 x507 +1 x1 -1 x371 -1 x527 = 0 ;
+2 x508 +1 x2 -1 x372 -1 x507 -1 x528 = 0 ;
+2 x509 +1 x3 -1 x373 -1 x508 -1 x529 = 0 ;
+2 x510 +1 x4 -1 x374 -1 x509 -1 x530 = 0 ;
+2 x511 +1 x5 -1 x375 -1 x510 -1 x531 = 0 ;
+2 x512 +1 x6 -1 x377 -1 x511 -1 x532 = 0 ;
+2 x513 +1 x7 -1 x379 -1 x512 -1 x376 = 0 ;
+2 x514 +1 x8 -1 x381 -1 x513 -1 x378 = 0 ;
+2 x515 +1 x9 -1 x383 -1 x514 -1 x380 = 0 ;
+2 x516 +1 x10 -1 x385 -1 x515 -1 x382 = 0 ;
+2 x517 +1 x11 -1 x387 -1 x516 -1 x384 = 0 ;
+2 x518 +1 x12 -1 x389 -1 x517 -1 x386 = 0 ;
+2 x519 +1 x13 -1 x391 -1 x518 -1 x388 = 0 ;
+2 x520 +1 x14 -1 x393 -1 x519 -1 x390 = 0 ;
+2 x521 +1 x15 -1 x395 -1 x520 -1 x392 = 0 ;
+2 x522 +1 x16 -1 x397 -1 x521 -1 x394 = 0 ;
+2 x523 +1 x17 -1 x399 -1 x522 -1 x396 = 0 ;
+2 x524 +1 x18 -1 x401 -1 x523 -1 x398 = 0 ;
+2 x525 +1 x19 -1 x403 -1 x524 -1 x400 = 0 ;
+2 x526 +1 x20 -1 x405 -1 x525 -1 x402 = 0 ;
+1 x526 -1 x21 = 0 ;
